(synth-fun lemma ((x Int) (y Int) (nil Int)) Bool
           ((Start Bool) (B1 Bool) (Loc Int))

           ((Start Bool (B1
                   (=> B1 B1)))
            (B1 Bool (
                (reach_lr Loc Loc)
                (tree_p Loc)))
            (Loc Int (x y nil)))
)

(synth-fun rswitch () Int
           ((Start Int))
           ((Start Int (0 1)))
)

